sat
(
  (define-fun ProcProv5 () Int
    8)
  (define-fun StorageProv1 () Int
    2000)
  (define-fun C3_VM4 () Int
    0)
  (define-fun VM2Type () Int
    0)
  (define-fun ProcProv2 () Int
    18)
  (define-fun C1_VM3 () Int
    0)
  (define-fun MemProv6 () Int
    68400)
  (define-fun C1_VM6 () Int
    0)
  (define-fun MemProv4 () Int
    7500)
  (define-fun C5_VM2 () Int
    0)
  (define-fun C5_VM1 () Int
    0)
  (define-fun MemProv2 () Int
    122001)
  (define-fun C4_VM3 () Int
    0)
  (define-fun StorageProv6 () Int
    2000)
  (define-fun C5_VM4 () Int
    1)
  (define-fun C3_VM6 () Int
    0)
  (define-fun PriceProv2 () Int
    0)
  (define-fun PriceProv6 () Int
    1288)
  (define-fun C4_VM5 () Int
    0)
  (define-fun C2_VM1 () Int
    0)
  (define-fun StorageProv4 () Int
    2000)
  (define-fun C2_VM4 () Int
    1)
  (define-fun C3_VM3 () Int
    0)
  (define-fun C3_VM5 () Int
    1)
  (define-fun StorageProv3 () Int
    2000)
  (define-fun C5_VM6 () Int
    0)
  (define-fun C4_VM1 () Int
    0)
  (define-fun PriceProv5 () Int
    632)
  (define-fun VM5Type () Int
    21)
  (define-fun C1_VM4 () Int
    0)
  (define-fun C2_VM3 () Int
    1)
  (define-fun PriceProv1 () Int
    252)
  (define-fun PriceProv3 () Int
    252)
  (define-fun ProcProv4 () Int
    4)
  (define-fun C2_VM6 () Int
    0)
  (define-fun MemProv5 () Int
    7000)
  (define-fun C3_VM2 () Int
    0)
  (define-fun C5_VM3 () Int
    1)
  (define-fun C1_VM2 () Int
    0)
  (define-fun VM4Type () Int
    27)
  (define-fun VM1Type () Int
    26)
  (define-fun C4_VM2 () Int
    0)
  (define-fun C1_VM5 () Int
    0)
  (define-fun ProcProv1 () Int
    4)
  (define-fun MemProv1 () Int
    7500)
  (define-fun C5_VM5 () Int
    1)
  (define-fun VM3Type () Int
    26)
  (define-fun ProcProv6 () Int
    8)
  (define-fun C2_VM2 () Int
    0)
  (define-fun ProcProv3 () Int
    4)
  (define-fun VM6Type () Int
    22)
  (define-fun C2_VM5 () Int
    0)
  (define-fun StorageProv2 () Int
    8001)
  (define-fun PriceProv4 () Int
    252)
  (define-fun C4_VM4 () Int
    0)
  (define-fun StorageProv5 () Int
    4000)
  (define-fun C4_VM6 () Int
    1)
  (define-fun C3_VM1 () Int
    0)
  (define-fun MemProv3 () Int
    7500)
  (define-fun C1_VM1 () Int
    1)
)
(objectives
 ( 16)
 ((+ 0 PriceProv1 PriceProv2 PriceProv3 PriceProv4 PriceProv5 PriceProv6) 2676)
)
(:added-eqs                   138861
 :arith-eq-adapter            11865
 :arith-bound-propagations-lp 14009
 :arith-conflicts             33
 :arith-diseq                 190975
 :arith-fixed-eqs             3529
 :arith-lower                 209975
 :arith-make-feasible         19041
 :arith-max-columns           147
 :arith-max-rows              20
 :arith-upper                 200011
 :binary-propagations         901062
 :conflicts                   3409
 :decisions                   46478
 :del-clause                  25959
 :final-checks                50
 :max-memory                  47.56
 :memory                      47.36
 :minimized-lits              41022
 :mk-bool-var                 25043
 :mk-clause                   27502
 :mk-clause-binary            4343
 :num-allocs                  71485238
 :num-checks                  51
 :pb-conflicts                1499
 :pb-predicates               558
 :pb-propagations             19438
 :pb-resolves                 1485
 :propagations                1538323
 :restarts                    21
 :rlimit-count                7791922
 :solve-eqs-elim-vars         1
 :solve-eqs-steps             10
 :time                        0.38
 :total-time                  0.38)
